55
1 2 3 7 9 10 14 18 35 41 43 57 63 101 112 113 114 142 144 156 166 175 176 198 223 239 243 279 304 328 366 393 415 506 532 542 543 594 607 659 718 826 849 910 1027 1147 1302 1386 1500 1515 1550 1580 1695 1748 1778
0.10,55
